NAME : N101P1.799.tour
COMMENT : Cost = 0_799
COMMENT : Found by LKH [Keld Helsgaun] Sun Sep 17 15:52:35 2017
TYPE : TOUR
DIMENSION : 101
TOUR_SECTION
1
69
99
30
20
76
95
50
55
60
28
3
92
33
23
80
70
57
62
24
93
2
86
66
97
74
91
27
36
40
10
25
52
65
51
49
75
46
68
47
22
32
64
90
81
39
37
56
17
45
12
31
26
84
29
7
101
35
15
53
87
34
4
82
58
21
71
16
6
44
9
48
41
38
18
100
5
96
19
14
67
85
11
59
88
61
98
79
54
77
89
73
72
63
8
43
94
13
42
78
83
-1
EOF
